
Gurobi 10.0.2 (win64) logging started Fri Jun 21 03:40:56 2024

Set parameter LogFile to value "log/log_difficulty1_MNL_DESKTOP-S7OVCUR_9_30.txt"
Gurobi Optimizer version 10.0.2 build v10.0.2rc0 (win64)

CPU model: Intel(R) Core(TM) i7-10510U CPU @ 1.80GHz, instruction set [SSE2|AVX|AVX2]
Thread count: 4 physical cores, 8 logical processors, using up to 8 threads

Optimize a model with 2020 rows, 676 columns and 4612 nonzeros
Model fingerprint: 0x6d06d97b
Variable types: 364 continuous, 312 integer (312 binary)
Coefficient statistics:
  Matrix range     [1e-03, 1e+03]
  Objective range  [1e+02, 6e+02]
  Bounds range     [1e+00, 1e+00]
  RHS range        [1e+00, 1e+00]
Found heuristic solution: objective -0.0000000
Presolve removed 224 rows and 104 columns
Presolve time: 0.03s
Presolved: 1796 rows, 572 columns, 4250 nonzeros
Found heuristic solution: objective 2179.2028358
Variable types: 308 continuous, 264 integer (264 binary)

Root relaxation: objective 1.579135e+04, 422 iterations, 0.02 seconds (0.00 work units)

    Nodes    |    Current Node    |     Objective Bounds      |     Work
 Expl Unexpl |  Obj  Depth IntInf | Incumbent    BestBd   Gap | It/Node Time

     0     0 15791.3515    0  156 2179.20284 15791.3515   625%     -    0s
H    0     0                    6874.0463739 15791.3515   130%     -    0s
H    0     0                    8055.4186720 15791.3515  96.0%     -    0s
H    0     0                    12900.777595 15050.3913  16.7%     -    0s
     0     0 15050.3913    0  178 12900.7776 15050.3913  16.7%     -    0s
H    0     0                    13169.486673 15037.6690  14.2%     -    0s
     0     0 15035.8231    0  184 13169.4867 15035.8231  14.2%     -    0s
     0     0 15024.5409    0  185 13169.4867 15024.5409  14.1%     -    0s
H    0     0                    13192.555772 14617.5327  10.8%     -    0s
H    0     0                    13249.883118 14617.5327  10.3%     -    0s
     0     0 14617.5327    0  174 13249.8831 14617.5327  10.3%     -    0s
H    0     0                    13967.671176 14617.5327  4.65%     -    0s
     0     0 14593.0047    0  185 13967.6712 14593.0047  4.48%     -    0s
     0     0 14589.7725    0  183 13967.6712 14589.7725  4.45%     -    0s
     0     0 14589.6248    0  184 13967.6712 14589.6248  4.45%     -    0s
H    0     0                    14275.824211 14589.6248  2.20%     -    0s
H    0     0                    14361.909247 14589.6248  1.59%     -    0s
     0     0 14462.0121    0  163 14361.9092 14462.0121  0.70%     -    0s
     0     0 14440.1761    0  177 14361.9092 14440.1761  0.54%     -    0s
     0     0 14440.1601    0  176 14361.9092 14440.1601  0.54%     -    0s
     0     0 14438.2948    0  174 14361.9092 14438.2948  0.53%     -    0s
     0     0 14437.8112    0  174 14361.9092 14437.8112  0.53%     -    0s
     0     0 14424.1444    0  165 14361.9092 14424.1444  0.43%     -    0s
     0     0 14423.1917    0  165 14361.9092 14423.1917  0.43%     -    0s
H    0     0                    14364.708177 14423.1917  0.41%     -    0s
     0     0 14419.9176    0  167 14364.7082 14419.9176  0.38%     -    0s
     0     0 14419.5166    0  170 14364.7082 14419.5166  0.38%     -    0s
H    0     0                    14396.291139 14405.8611  0.07%     -    0s
     0     0 14405.7952    0  165 14396.2911 14405.7952  0.07%     -    0s
     0     0 14403.5776    0  100 14396.2911 14403.5776  0.05%     -    0s
     0     0 14401.5722    0   13 14396.2911 14401.5722  0.04%     -    0s
     0     0     cutoff    0      14396.2911 14396.2911  0.00%     -    0s

Cutting planes:
  Gomory: 17
  Cover: 1
  Implied bound: 27
  MIR: 60
  Flow cover: 98
  RLT: 57
  Relax-and-lift: 8
  BQP: 9

Explored 1 nodes (2270 simplex iterations) in 0.55 seconds (0.21 work units)
Thread count was 8 (of 8 available processors)

Solution count 10: 14396.3 14364.7 14361.9 ... 8055.42

Optimal solution found (tolerance 1.00e-04)
Best objective 1.439629113865e+04, best bound 1.439629113865e+04, gap 0.0000%
